
        $ From http://www.csplib.org/Problems/prob009/data/helmut.pdf
        $ Problem number 53
        $ Sequence length : 25
        language ESSENCE' 1.0
        letting sizemaster be 236
        letting sizes be sequence(1,2,4,9,11,12,13,14,15,16,19,24,38,40,44,46,47,48,59,64,65,70,81,85,107)
        